NAME : XML100_3361_05
DIMENSION : 101
NB_CLUSTERS : 4
CLUSTERING_ALG : KMedoids
CLUSTERING_PARAMS : k(3)
CLUSTERS
1 0
2 2 6 8 9 11 16 21 27 29 30 32 35 36 40 42 43 44 46 47 49 51 55 58 59 64 67 73 74 78 79 80 81 83 87 96 99
3 1 10 12 13 15 20 22 25 26 31 34 41 45 52 53 54 56 57 68 69 72 77 84 85 88 92 93 97 100
4 3 4 5 7 14 17 18 19 23 24 28 33 37 38 39 48 50 60 61 62 63 65 66 70 71 75 76 82 86 89 90 91 94 95 98
EOF